data;
#volume maximum du sac-à-dos
param M := 2583;
#nombre de blocs
param n := 515;
#taille des blocs
param t := 1 16
		2 18
		3 8
		4 10
		5 2
		6 16
		7 30
		8 2
		9 25
		10 26
		11 10
		12 8
		13 5
		14 12
		15 4
		16 12
		17 21
		18 9
		19 16
		20 3
		21 5
		22 23
		23 22
		24 2
		25 22
		26 22
		27 12
		28 29
		29 15
		30 28
		31 18
		32 7
		33 21
		34 28
		35 24
		36 14
		37 2
		38 15
		39 14
		40 22
		41 5
		42 6
		43 26
		44 25
		45 29
		46 19
		47 15
		48 7
		49 23
		50 25
		51 18
		52 27
		53 6
		54 3
		55 27
		56 15
		57 29
		58 1
		59 9
		60 17
		61 1
		62 28
		63 14
		64 3
		65 22
		66 6
		67 19
		68 19
		69 5
		70 26
		71 6
		72 7
		73 22
		74 11
		75 24
		76 12
		77 16
		78 30
		79 5
		80 18
		81 5
		82 18
		83 17
		84 30
		85 18
		86 13
		87 27
		88 11
		89 18
		90 24
		91 2
		92 27
		93 14
		94 29
		95 5
		96 19
		97 9
		98 24
		99 3
		100 7
		101 10
		102 4
		103 21
		104 7
		105 19
		106 12
		107 5
		108 20
		109 10
		110 11
		111 25
		112 15
		113 26
		114 11
		115 14
		116 9
		117 19
		118 20
		119 18
		120 10
		121 18
		122 9
		123 4
		124 23
		125 29
		126 11
		127 23
		128 18
		129 16
		130 7
		131 7
		132 22
		133 19
		134 26
		135 30
		136 25
		137 1
		138 1
		139 14
		140 2
		141 10
		142 4
		143 29
		144 4
		145 11
		146 5
		147 9
		148 3
		149 22
		150 16
		151 17
		152 21
		153 26
		154 28
		155 28
		156 12
		157 2
		158 14
		159 28
		160 6
		161 11
		162 16
		163 28
		164 29
		165 8
		166 1
		167 15
		168 18
		169 4
		170 10
		171 13
		172 21
		173 27
		174 6
		175 13
		176 23
		177 12
		178 25
		179 18
		180 20
		181 28
		182 25
		183 4
		184 13
		185 26
		186 30
		187 4
		188 14
		189 8
		190 8
		191 13
		192 27
		193 22
		194 17
		195 28
		196 10
		197 11
		198 21
		199 16
		200 12
		201 9
		202 11
		203 15
		204 27
		205 26
		206 4
		207 18
		208 7
		209 6
		210 2
		211 14
		212 4
		213 15
		214 29
		215 20
		216 24
		217 27
		218 24
		219 11
		220 24
		221 16
		222 27
		223 4
		224 26
		225 11
		226 25
		227 30
		228 9
		229 15
		230 27
		231 22
		232 23
		233 16
		234 20
		235 20
		236 24
		237 25
		238 22
		239 16
		240 28
		241 6
		242 11
		243 4
		244 3
		245 1
		246 13
		247 12
		248 10
		249 6
		250 15
		251 26
		252 14
		253 21
		254 9
		255 13
		256 15
		257 4
		258 16
		259 27
		260 25
		261 9
		262 10
		263 4
		264 9
		265 10
		266 18
		267 23
		268 17
		269 27
		270 2
		271 7
		272 11
		273 2
		274 16
		275 28
		276 8
		277 1
		278 10
		279 28
		280 27
		281 24
		282 26
		283 6
		284 21
		285 12
		286 24
		287 8
		288 19
		289 14
		290 21
		291 28
		292 1
		293 30
		294 16
		295 11
		296 10
		297 17
		298 20
		299 30
		300 7
		301 25
		302 13
		303 18
		304 25
		305 19
		306 26
		307 28
		308 28
		309 19
		310 7
		311 16
		312 3
		313 12
		314 7
		315 16
		316 6
		317 5
		318 4
		319 10
		320 15
		321 5
		322 29
		323 20
		324 12
		325 1
		326 29
		327 26
		328 10
		329 7
		330 10
		331 21
		332 16
		333 24
		334 30
		335 8
		336 16
		337 17
		338 28
		339 1
		340 6
		341 20
		342 9
		343 27
		344 22
		345 9
		346 9
		347 30
		348 7
		349 4
		350 11
		351 13
		352 15
		353 23
		354 18
		355 6
		356 8
		357 12
		358 1
		359 17
		360 25
		361 8
		362 16
		363 10
		364 22
		365 12
		366 15
		367 11
		368 14
		369 26
		370 10
		371 9
		372 25
		373 24
		374 19
		375 1
		376 18
		377 29
		378 29
		379 9
		380 20
		381 6
		382 6
		383 26
		384 3
		385 4
		386 13
		387 20
		388 15
		389 15
		390 6
		391 22
		392 15
		393 10
		394 28
		395 25
		396 21
		397 6
		398 29
		399 29
		400 5
		401 4
		402 20
		403 15
		404 27
		405 13
		406 6
		407 9
		408 25
		409 25
		410 19
		411 15
		412 2
		413 19
		414 4
		415 15
		416 2
		417 16
		418 11
		419 9
		420 21
		421 23
		422 17
		423 8
		424 10
		425 17
		426 27
		427 21
		428 13
		429 13
		430 17
		431 16
		432 7
		433 23
		434 15
		435 9
		436 5
		437 14
		438 24
		439 24
		440 8
		441 15
		442 3
		443 16
		444 13
		445 30
		446 17
		447 30
		448 30
		449 24
		450 14
		451 2
		452 25
		453 10
		454 28
		455 26
		456 5
		457 1
		458 6
		459 13
		460 28
		461 30
		462 3
		463 20
		464 21
		465 7
		466 15
		467 15
		468 14
		469 2
		470 10
		471 8
		472 29
		473 4
		474 8
		475 6
		476 4
		477 2
		478 27
		479 7
		480 4
		481 5
		482 4
		483 3
		484 18
		485 12
		486 24
		487 25
		488 11
		489 10
		490 20
		491 6
		492 13
		493 28
		494 28
		495 9
		496 22
		497 3
		498 16
		499 26
		500 2
		501 23
		502 18
		503 30
		504 29
		505 30
		506 9
		507 3
		508 4
		509 21
		510 18
		511 24
		512 4
		513 18
		514 23
		515 23;
#valeur des blocs
param v := 1 24
		2 30
		3 16
		4 4
		5 46
		6 45
		7 42
		8 17
		9 25
		10 44
		11 31
		12 38
		13 34
		14 42
		15 46
		16 19
		17 49
		18 28
		19 18
		20 37
		21 50
		22 34
		23 16
		24 38
		25 50
		26 32
		27 31
		28 7
		29 13
		30 18
		31 41
		32 30
		33 37
		34 6
		35 40
		36 20
		37 26
		38 35
		39 6
		40 35
		41 5
		42 37
		43 37
		44 2
		45 44
		46 8
		47 7
		48 27
		49 46
		50 48
		51 30
		52 29
		53 21
		54 1
		55 34
		56 33
		57 3
		58 26
		59 15
		60 39
		61 47
		62 47
		63 36
		64 48
		65 9
		66 19
		67 12
		68 46
		69 11
		70 13
		71 30
		72 36
		73 18
		74 22
		75 39
		76 44
		77 9
		78 41
		79 15
		80 28
		81 33
		82 13
		83 46
		84 31
		85 5
		86 5
		87 39
		88 20
		89 3
		90 42
		91 5
		92 29
		93 29
		94 10
		95 6
		96 19
		97 36
		98 37
		99 43
		100 40
		101 11
		102 36
		103 36
		104 9
		105 50
		106 32
		107 40
		108 20
		109 28
		110 14
		111 19
		112 25
		113 20
		114 38
		115 27
		116 13
		117 22
		118 42
		119 7
		120 48
		121 3
		122 12
		123 40
		124 16
		125 15
		126 3
		127 15
		128 40
		129 38
		130 50
		131 5
		132 5
		133 14
		134 38
		135 47
		136 29
		137 15
		138 47
		139 25
		140 22
		141 42
		142 24
		143 1
		144 44
		145 42
		146 7
		147 7
		148 27
		149 11
		150 41
		151 50
		152 10
		153 13
		154 19
		155 19
		156 29
		157 15
		158 20
		159 19
		160 8
		161 10
		162 11
		163 28
		164 39
		165 4
		166 47
		167 2
		168 20
		169 15
		170 3
		171 31
		172 44
		173 35
		174 16
		175 33
		176 15
		177 40
		178 12
		179 15
		180 7
		181 33
		182 24
		183 12
		184 47
		185 34
		186 8
		187 32
		188 13
		189 21
		190 21
		191 3
		192 46
		193 14
		194 11
		195 9
		196 48
		197 24
		198 24
		199 16
		200 11
		201 23
		202 15
		203 26
		204 22
		205 4
		206 50
		207 33
		208 50
		209 6
		210 25
		211 31
		212 6
		213 45
		214 42
		215 2
		216 10
		217 24
		218 31
		219 2
		220 46
		221 50
		222 15
		223 44
		224 29
		225 28
		226 14
		227 29
		228 16
		229 49
		230 34
		231 11
		232 28
		233 19
		234 37
		235 16
		236 27
		237 31
		238 48
		239 7
		240 28
		241 34
		242 46
		243 11
		244 38
		245 20
		246 12
		247 18
		248 17
		249 49
		250 5
		251 39
		252 30
		253 27
		254 48
		255 8
		256 21
		257 17
		258 7
		259 28
		260 37
		261 17
		262 32
		263 41
		264 21
		265 3
		266 7
		267 11
		268 13
		269 17
		270 21
		271 36
		272 20
		273 8
		274 30
		275 22
		276 38
		277 18
		278 26
		279 20
		280 49
		281 24
		282 17
		283 44
		284 24
		285 43
		286 40
		287 37
		288 32
		289 37
		290 33
		291 31
		292 50
		293 42
		294 9
		295 22
		296 34
		297 15
		298 34
		299 31
		300 23
		301 50
		302 2
		303 21
		304 34
		305 48
		306 19
		307 38
		308 29
		309 43
		310 39
		311 46
		312 14
		313 24
		314 23
		315 3
		316 30
		317 8
		318 42
		319 18
		320 41
		321 43
		322 44
		323 26
		324 9
		325 9
		326 36
		327 21
		328 18
		329 48
		330 4
		331 35
		332 7
		333 19
		334 26
		335 25
		336 5
		337 26
		338 48
		339 20
		340 23
		341 5
		342 35
		343 10
		344 25
		345 44
		346 11
		347 14
		348 24
		349 17
		350 21
		351 18
		352 11
		353 25
		354 45
		355 16
		356 25
		357 28
		358 48
		359 15
		360 45
		361 5
		362 37
		363 24
		364 3
		365 14
		366 34
		367 50
		368 25
		369 4
		370 21
		371 37
		372 42
		373 7
		374 2
		375 15
		376 30
		377 5
		378 38
		379 30
		380 22
		381 17
		382 28
		383 1
		384 41
		385 22
		386 24
		387 7
		388 23
		389 6
		390 36
		391 25
		392 41
		393 33
		394 10
		395 20
		396 12
		397 38
		398 3
		399 41
		400 44
		401 7
		402 23
		403 36
		404 29
		405 24
		406 15
		407 31
		408 28
		409 34
		410 31
		411 21
		412 40
		413 33
		414 47
		415 38
		416 39
		417 13
		418 12
		419 10
		420 43
		421 6
		422 31
		423 13
		424 5
		425 48
		426 1
		427 31
		428 29
		429 36
		430 37
		431 18
		432 23
		433 40
		434 33
		435 27
		436 33
		437 32
		438 22
		439 25
		440 40
		441 14
		442 45
		443 35
		444 10
		445 1
		446 47
		447 25
		448 2
		449 6
		450 12
		451 9
		452 15
		453 10
		454 35
		455 15
		456 10
		457 19
		458 28
		459 30
		460 24
		461 36
		462 50
		463 42
		464 24
		465 37
		466 30
		467 31
		468 36
		469 32
		470 28
		471 46
		472 30
		473 47
		474 18
		475 45
		476 6
		477 16
		478 41
		479 9
		480 5
		481 1
		482 41
		483 29
		484 25
		485 50
		486 10
		487 44
		488 11
		489 50
		490 16
		491 23
		492 27
		493 29
		494 46
		495 31
		496 34
		497 37
		498 16
		499 4
		500 27
		501 47
		502 49
		503 31
		504 32
		505 41
		506 26
		507 21
		508 3
		509 21
		510 39
		511 50
		512 36
		513 50
		514 3
		515 44;
end;
